p cnf 150 522
4 2 0
4 -3 0
-2 3 -4 0
-5 -1 0
-5 4 0
1 -4 5 0
6 -5 0
6 4 0
5 -4 -6 0
-7 -8 -9 0
7 8 -9 0
-7 8 9 0
7 -8 9 0
11 -9 0
11 -10 0
9 10 -11 0
-13 12 0
-13 -1 0
-12 1 13 0
13 14 -15 0
-13 -14 -15 0
13 -14 15 0
-13 14 15 0
16 11 0
16 15 0
-11 -15 -16 0
-18 -14 0
-18 -17 0
14 17 18 0
16 -18 -19 0
-16 18 -19 0
16 18 19 0
-16 -18 19 0
-20 -6 0
-20 19 0
6 -19 20 0
-21 -22 -23 0
21 22 -23 0
-21 22 23 0
21 -22 23 0
-24 3 0
-24 -23 0
-3 23 24 0
4 18 -25 0
-4 -18 -25 0
4 -18 25 0
-4 18 25 0
26 24 0
26 25 0
-24 -25 -26 0
-23 -4 -27 0
23 4 -27 0
-23 4 27 0
23 -4 27 0
28 -27 0
28 -15 0
27 15 -28 0
-28 -29 0
28 -29 0
-30 -29 0
-30 23 0
29 -23 30 0
31 26 0
31 30 0
-26 -30 -31 0
-32 -20 0
-32 31 0
20 -31 32 0
33 4 0
33 -26 0
-4 26 -33 0
-34 -3 0
-34 -33 0
3 33 34 0
-35 2 0
-35 9 0
-2 -9 35 0
-26 35 -36 0
26 -35 -36 0
-26 -35 36 0
26 35 36 0
37 36 0
37 -9 0
-36 9 -37 0
-38 -37 0
-38 27 0
37 -27 38 0
39 -34 0
39 -38 0
34 38 -39 0
-40 -13 -41 0
40 13 -41 0
-40 13 41 0
40 -13 41 0
-42 3 0
-42 17 0
-3 -17 42 0
43 41 0
43 -42 0
-41 42 -43 0
-44 -39 0
-44 -43 0
39 43 44 0
23 -45 -46 0
-23 45 -46 0
23 45 46 0
-23 -45 46 0
46 15 -47 0
-46 -15 -47 0
46 -15 47 0
-46 15 47 0
-13 47 -48 0
13 -47 -48 0
-13 -47 48 0
13 47 48 0
-49 -3 0
-49 48 0
3 -48 49 0
50 -12 -51 0
-50 12 -51 0
50 12 51 0
-50 -12 51 0
-52 21 0
-52 -51 0
-21 51 52 0
-50 52 -53 0
50 -52 -53 0
-50 -52 53 0
50 52 53 0
-54 -49 0
-54 -53 0
49 53 54 0
-55 50 0
-55 15 0
-50 -15 55 0
54 -55 -56 0
-54 55 -56 0
54 55 56 0
-54 -55 56 0
-24 18 -57 0
24 -18 -57 0
-24 -18 57 0
24 18 57 0
-33 57 -58 0
33 -57 -58 0
-33 -57 58 0
33 57 58 0
59 24 0
59 58 0
-24 -58 -59 0
60 -18 0
60 23 0
18 -23 -60 0
-60 -5 -61 0
60 5 -61 0
-60 5 61 0
60 -5 61 0
-59 -61 -62 0
59 61 -62 0
-59 61 62 0
59 -61 62 0
37 -63 -64 0
-37 63 -64 0
37 63 64 0
-37 -63 64 0
65 -5 0
65 64 0
5 -64 -65 0
-66 -65 0
-66 -2 0
65 2 66 0
-62 66 -67 0
62 -66 -67 0
-62 -66 67 0
62 66 67 0
-1 -4 -68 0
1 4 -68 0
-1 4 68 0
1 -4 68 0
2 68 -69 0
-2 -68 -69 0
2 -68 69 0
-2 68 69 0
-70 67 0
-70 69 0
-67 -69 70 0
-71 4 0
-71 -52 0
-4 52 71 0
-72 -58 0
-72 71 0
58 -71 72 0
70 72 -73 0
-70 -72 -73 0
70 -72 73 0
-70 72 73 0
8 15 -74 0
-8 -15 -74 0
8 -15 74 0
-8 15 74 0
74 -10 -75 0
-74 10 -75 0
74 10 75 0
-74 -10 75 0
76 -29 0
76 -75 0
29 75 -76 0
-77 63 0
-77 -22 0
-63 22 77 0
76 -77 -78 0
-76 77 -78 0
76 77 78 0
-76 -77 78 0
-73 -78 -79 0
73 78 -79 0
-73 78 79 0
73 -78 79 0
-80 56 0
-80 -79 0
-56 79 80 0
-44 -80 -81 0
44 80 -81 0
-44 80 81 0
44 -80 81 0
-32 -81 -82 0
32 81 -82 0
-32 81 82 0
32 -81 82 0
12 -51 -83 0
-12 51 -83 0
12 51 83 0
-12 -51 83 0
84 60 0
84 -83 0
-60 83 -84 0
42 77 -85 0
-42 -77 -85 0
42 -77 85 0
-42 77 85 0
-86 -85 0
-86 -33 0
85 33 86 0
87 64 0
87 60 0
-64 -60 -87 0
50 14 -88 0
-50 -14 -88 0
50 -14 88 0
-50 14 88 0
88 -3 -89 0
-88 3 -89 0
88 3 89 0
-88 -3 89 0
-90 -87 0
-90 89 0
87 -89 90 0
91 -86 0
91 90 0
86 -90 -91 0
-25 -5 -92 0
25 5 -92 0
-25 5 92 0
25 -5 92 0
93 92 0
93 -75 0
-92 75 -93 0
94 -91 0
94 -93 0
91 93 -94 0
95 -84 0
95 -94 0
84 94 -95 0
96 -92 0
96 51 0
92 -51 -96 0
97 96 0
97 21 0
-96 -21 -97 0
98 97 0
98 -47 0
-97 47 -98 0
-22 36 -99 0
22 -36 -99 0
-22 -36 99 0
22 36 99 0
46 28 -100 0
-46 -28 -100 0
46 -28 100 0
-46 28 100 0
-101 -99 0
-101 -100 0
99 100 101 0
102 98 0
102 -101 0
-98 101 -102 0
103 -5 0
103 29 0
5 -29 -103 0
104 -102 0
104 103 0
102 -103 -104 0
95 104 -105 0
-95 -104 -105 0
95 -104 105 0
-95 104 105 0
-106 27 0
-106 7 0
-27 -7 106 0
106 41 -107 0
-106 -41 -107 0
106 -41 107 0
-106 41 107 0
108 105 0
108 107 0
-105 -107 -108 0
-109 28 0
-109 1 0
-28 -1 109 0
110 -99 0
110 53 0
99 -53 -110 0
42 74 -111 0
-42 -74 -111 0
42 -74 111 0
-42 74 111 0
-112 110 0
-112 -111 0
-110 111 112 0
109 112 -113 0
-109 -112 -113 0
109 -112 113 0
-109 112 113 0
-114 10 0
-114 -99 0
-10 99 114 0
113 -114 -115 0
-113 114 -115 0
113 114 115 0
-113 -114 115 0
-46 57 -116 0
46 -57 -116 0
-46 -57 116 0
46 57 116 0
3 75 -117 0
-3 -75 -117 0
3 -75 117 0
-3 75 117 0
8 -64 -118 0
-8 64 -118 0
8 64 118 0
-8 -64 118 0
-117 -118 -119 0
117 118 -119 0
-117 118 119 0
117 -118 119 0
120 -116 0
120 119 0
116 -119 -120 0
-121 -115 0
-121 -120 0
115 120 121 0
122 13 0
122 45 0
-13 -45 -122 0
36 122 -123 0
-36 -122 -123 0
36 -122 123 0
-36 122 123 0
-24 123 -124 0
24 -123 -124 0
-24 -123 124 0
24 123 124 0
-125 8 0
-125 11 0
-8 -11 125 0
-127 49 0
-127 126 0
-49 -126 127 0
-128 -22 0
-128 -29 0
22 29 128 0
-129 9 0
-129 46 0
-9 -46 129 0
-130 128 0
-130 129 0
-128 -129 130 0
-131 -127 0
-131 130 0
127 -130 131 0
132 -125 0
132 -131 0
125 131 -132 0
-133 -63 0
-133 10 0
63 -10 133 0
-134 -133 0
-134 -83 0
133 83 134 0
10 -68 -135 0
-10 68 -135 0
10 68 135 0
-10 -68 135 0
-136 -134 0
-136 -135 0
134 135 136 0
-137 132 0
-137 -136 0
-132 136 137 0
33 -3 -138 0
-33 3 -138 0
33 3 138 0
-33 -3 138 0
138 77 -139 0
-138 -77 -139 0
138 -77 139 0
-138 77 139 0
-8 -33 -140 0
8 33 -140 0
-8 33 140 0
8 -33 140 0
-141 -23 0
-141 25 0
23 -25 141 0
142 -140 0
142 141 0
140 -141 -142 0
-143 142 0
-143 55 0
-142 -55 143 0
-144 -143 0
-144 -133 0
143 133 144 0
-145 -139 0
-145 -144 0
139 144 145 0
146 -137 0
146 145 0
137 -145 -146 0
-147 124 0
-147 -146 0
-124 146 147 0
-121 -147 -148 0
121 147 -148 0
-121 147 148 0
121 -147 148 0
149 108 0
149 -148 0
-108 148 -149 0
-150 -82 0
-150 149 0
82 -149 150 0
96 -74 -88 38 0
-57 -121 79 0
-75 56 -110 -25 148 -64 0
-93 127 16 -100 -99 -64 0
139 114 66 109 -74 0
82 -80 -3 -120 -35 0
-46 -119 -50 0
42 54 20 91 110 0
-120 -53 0
-62 -144 -121 33 -31 -120 0
-117 -134 44 -82 15 0
-25 -136 79 0
-76 42 -30 -118 -132 0
-28 21 138 31 0
-61 144 82 -123 42 0
58 67 150 -87 37 13 0
-26 -101 29 140 45 75 0
-31 126 4 75 -118 23 0
-111 23 41 38 0
-76 0
119 54 52 -125 -9 0
-149 -75 -26 150 0
107 120 0
109 18 146 0
-126 71 -69 -80 -50 0
135 108 64 0
-41 -9 -139 -71 -45 0
-127 121 0
-63 -75 19 37 0
-98 83 9 6 78 57 0
52 99 -2 0
50 104 21 -6 -79 111 0
71 -128 -65 0
111 -133 -100 -139 0
18 -117 -33 -95 0
-51 -95 28 -8 147 88 0
57 -146 -30 -24 0
29 122 0
141 129 -6 -149 0
-76 -130 0
-12 -41 119 0
-117 -69 -72 -56 35 34 0
-3 -56 102 0
46 -26 135 -57 116 -117 0
143 78 -145 -12 -142 0
-50 -75 -78 -149 0
13 116 51 29 143 0
-105 -67 -94 -21 131 71 0
130 148 0
109 -23 -96 0
142 67 0
-143 31 -126 69 12 -10 0
-97 139 -108 -6 0
111 -70 34 109 0
-149 -70 -12 -1 64 0
141 -89 0
-22 -113 -146 -62 0
31 -86 0
-106 149 146 -56 -15 0
134 -18 -131 -106 55 -101 0
137 -105 51 0
-56 129 -130 128 90 -28 0
-64 125 -136 -19 -9 -105 0
-120 -94 0
133 139 12 60 0
-40 -2 -10 69 -137 17 0
83 57 146 103 -121 -48 0
-19 4 -64 -62 150 0
150 0
